c
c start with comments
c
p cnf 26 13
-21 -25 17 0
-21 9 3 0
-3 -23 18 16 -6 -5 0
11 -4 13 0
8 7 0
-15 21 0
-6 -24 9 -13 -6 0
-9 -24 -17 0
3 27 14 -19 0
22 -20 -8 -10 0
23 -1 23 0
-26 14 4 16 -20 0
-12 -3 -17 -25 -26 10 0